clay0303m.py
Ipopt 3.12.8: 
==> Warning: Treating 21 binary and 0 integer variables as continous.


******************************************************************************
This program contains Ipopt, a library for large-scale nonlinear optimization.
 Ipopt is released as open source code under the Eclipse Public License (EPL).
         For more information visit http://projects.coin-or.org/Ipopt
******************************************************************************

This is Ipopt version 3.12.8, running with linear solver ma27.

Number of nonzeros in equality constraint Jacobian...:       21
Number of nonzeros in inequality constraint Jacobian.:      180
Number of nonzeros in Lagrangian Hessian.............:        6

Total number of variables............................:       33
                     variables with only lower bounds:        6
                variables with lower and upper bounds:       27
                     variables with only upper bounds:        0
Total number of equality constraints.................:        6
Total number of inequality constraints...............:       60
        inequality constraints with only lower bounds:       12
   inequality constraints with lower and upper bounds:        0
        inequality constraints with only upper bounds:       48

iter    objective    inf_pr   inf_du lg(mu)  ||d||  lg(rg) alpha_du alpha_pr  ls
   0  1.2799987e+01 5.74e+01 3.23e+01  -1.0 0.00e+00    -  0.00e+00 0.00e+00   0
   1  3.4201322e+00 5.65e+01 3.20e+01  -1.0 8.99e+01    -  1.22e-02 1.43e-02f  1
   2  1.8856475e+00 5.43e+01 3.16e+01  -1.0 8.08e+01    -  2.71e-02 3.35e-02f  1
   3  2.0093105e+00 4.96e+01 3.71e+01  -1.0 4.57e+01    -  1.92e-02 1.19e-01f  1
   4  1.7602592e+00 5.04e+01 3.26e+01  -1.0 1.35e+01    -  1.10e-01 1.02e-01f  1
   5  2.1883879e+00 6.76e+01 2.97e+01  -1.0 1.29e+01    -  3.12e-01 4.62e-01f  1
   6  1.7422187e+00 4.17e+01 1.55e+01  -1.0 8.48e+00    -  5.67e-01 6.68e-01f  1
   7  2.0042512e+00 2.55e+00 6.41e+00  -1.0 2.64e+00    -  6.50e-01 8.17e-01h  1
   8  2.2022065e+00 2.36e-02 7.75e+00  -1.0 1.66e+00    -  7.12e-01 4.50e-01h  1
   9  2.7986525e+00 4.41e-03 7.97e+00  -1.0 5.83e+00    -  3.55e-01 6.66e-01f  1
iter    objective    inf_pr   inf_du lg(mu)  ||d||  lg(rg) alpha_du alpha_pr  ls
  10  3.7396271e+00 1.52e-03 4.34e+00  -1.0 7.28e+00    -  6.08e-01 6.55e-01f  1
  11  5.1972343e+00 1.11e-16 1.24e+01  -1.0 1.70e+01    -  6.26e-01 1.00e+00f  1
  12  5.4004919e+00 2.22e-16 4.04e+00  -1.0 3.43e+01    -  5.95e-01 1.00e+00h  1
  13  5.3999820e+00 2.22e-16 2.24e-03  -1.0 1.73e+01    -  1.00e+00 1.00e+00h  1
  14  1.0799874e+00 2.22e-16 2.51e-04  -1.7 1.03e+00    -  1.00e+00 1.00e+00h  1
  15  8.1101139e-03 1.11e-16 1.84e-06  -3.8 2.12e-02    -  1.00e+00 1.00e+00f  1
  16  8.6825382e-05 0.00e+00 2.20e-08  -5.7 3.20e-02    -  1.00e+00 1.00e+00h  1
  17 -1.2664681e-05 2.22e-16 2.98e-11  -8.6 3.51e-03    -  1.00e+00 1.00e+00h  1

Number of Iterations....: 17

                                   (scaled)                 (unscaled)
Objective...............:  -4.2215604025603272e-06   -1.2664681207680982e-05
Dual infeasibility......:   2.9823490484017541e-11    8.9470471452052624e-11
Constraint violation....:   2.2204460492503131e-16    2.2204460492503131e-16
Complementarity.........:   2.6611528115081417e-09    7.9834584345244260e-09
Overall NLP error.......:   2.6611528115081417e-09    7.9834584345244260e-09


Number of objective function evaluations             = 18
Number of objective gradient evaluations             = 18
Number of equality constraint evaluations            = 18
Number of inequality constraint evaluations          = 18
Number of equality constraint Jacobian evaluations   = 18
Number of inequality constraint Jacobian evaluations = 18
Number of Lagrangian Hessian evaluations             = 17
Total CPU secs in IPOPT (w/o function evaluations)   =      0.012
Total CPU secs in NLP function evaluations           =      0.000

EXIT: Optimal Solution Found.

Time elapsed: 0.125618934631